
Gurobi 11.0.3 (linux64) logging started Thu Nov 21 23:06:47 2024

Set parameter LogFile to value "/home/yihong/Coding/OR_SUC/SUC_results_bigM100000_thread4/case24_ieee_rts_theta0.5_epsilon0.05_gurobi_seed1050000_num_gen100_N_WDR100_load_scaling_factor1_proposed_T8quadra_cost.txt"
Set parameter TimeLimit to value 3600
Gurobi Optimizer version 11.0.3 build v11.0.3rc0 (linux64 - "Ubuntu 20.04.6 LTS")

CPU model: AMD EPYC 7532 32-Core Processor, instruction set [SSE2|AVX|AVX2]
Thread count: 64 physical cores, 128 logical processors, using up to 4 threads

Optimize a model with 18854 rows, 10021 columns and 437434 nonzeros
Model fingerprint: 0x2e3f501f
Model has 800 quadratic constraints
Variable types: 9221 continuous, 800 integer (800 binary)
Coefficient statistics:
  Matrix range     [3e-04, 2e+03]
  QMatrix range    [2e-03, 8e-03]
  QLMatrix range   [7e-02, 6e+01]
  Objective range  [1e+00, 1e+00]
  Bounds range     [1e+00, 1e+00]
  RHS range        [1e+00, 8e+03]
Presolve removed 15631 rows and 4444 columns
Presolve time: 0.11s
Presolved: 3223 rows, 5577 columns, 20823 nonzeros
Presolved model has 800 quadratic constraint(s)
Variable types: 4777 continuous, 800 integer (800 binary)

Root relaxation: objective 1.680365e+04, 2398 iterations, 0.04 seconds (0.06 work units)

    Nodes    |    Current Node    |     Objective Bounds      |     Work
 Expl Unexpl |  Obj  Depth IntInf | Incumbent    BestBd   Gap | It/Node Time

     0     0 16803.6499    0    -          - 16803.6499      -     -    0s
     0     0 22089.9067    0  384          - 22089.9067      -     -    0s
     0     0 136180.485    0  264          - 136180.485      -     -    0s
     0     0 136182.910    0  264          - 136182.910      -     -    0s
     0     0 136346.583    0  136          - 136346.583      -     -    0s
     0     0 136346.964    0  136          - 136346.964      -     -    0s
     0     0 136347.860    0  144          - 136347.860      -     -    0s
     0     0 136348.024    0  144          - 136348.024      -     -    0s
     0     2 136348.251    0  144          - 136348.251      -     -    1s
H  257   219                    136413.32595 136359.835  0.04%  14.1    1s
*  257   219              70    136413.32595 136359.835  0.04%  14.1    1s

Cutting planes:
  Gomory: 136
  Implied bound: 259
  MIR: 21
  Flow cover: 105
  RLT: 79

Explored 265 nodes (12761 simplex iterations) in 1.94 seconds (2.27 work units)
Thread count was 4 (of 128 available processors)

Solution count 2: 136413 136413 

Optimal solution found (tolerance 1.00e-03)
Warning: max constraint violation (2.0628e-07) exceeds tolerance
Best objective 1.364133259496e+05, best bound 1.363598345775e+05, gap 0.0392%
